p cnf 10 45
-1 5 -10 
2 -9 5 
10 -4 -7 
-2 10 -5 
8 3 -4 
3 9 -2 
6 -4 -2 
-5 5 -6 
3 2 -1 
-4 3 3 
-10 -5 1 
-2 4 3 
2 -3 -3 
-10 -2 -2 
9 -1 -3 
9 -10 -9 
-9 -2 -6 
-7 1 9 
7 9 3 
1 6 -9 
9 9 -10 
6 -4 5 
6 7 -10 
9 8 7 
-7 -10 -6 
10 -4 10 
2 10 10 
1 -2 -3 
9 -6 7 
-4 8 6 
8 10 -1 
10 -3 -9 
4 -7 -3 
-9 3 -3 
-6 2 -1 
-6 2 9 
10 -4 -3 
-4 5 -10 
-9 -9 3 
7 -6 2 
2 -2 -8 
-7 -8 -7 
-2 -7 6 
-2 -8 10 
-10 10 -1 

